(set-info :smt-lib-version 2.6)
(set-info :category "crafted")
(set-logic QF_FFA)
(define-sort FF0 () (_ FiniteField 52435875175126190479447740508185965837690552500527637822603658699938581184513))
(declare-fun _34_alt () FF0)
(declare-fun _33_alt () FF0)
(declare-fun _9_alt () FF0)
(declare-fun _32_alt () FF0)
(declare-fun _8_alt () FF0)
(declare-fun _31_alt () FF0)
(declare-fun _7_alt () FF0)
(declare-fun _30_alt () FF0)
(declare-fun _6_alt () FF0)
(declare-fun _29_alt () FF0)
(declare-fun _5_alt () FF0)
(declare-fun _28_alt () FF0)
(declare-fun _4_alt () FF0)
(declare-fun _27_alt () FF0)
(declare-fun _3_alt () FF0)
(declare-fun _26_alt () FF0)
(declare-fun _2_alt () FF0)
(declare-fun _25_alt () FF0)
(declare-fun _17_alt () FF0)
(declare-fun _24_alt () FF0)
(declare-fun _16_alt () FF0)
(declare-fun _23_alt () FF0)
(declare-fun _15_alt () FF0)
(declare-fun _22_alt () FF0)
(declare-fun _14_alt () FF0)
(declare-fun _21_alt () FF0)
(declare-fun _13_alt () FF0)
(declare-fun _20_alt () FF0)
(declare-fun _12_alt () FF0)
(declare-fun _19_alt () FF0)
(declare-fun _11_alt () FF0)
(declare-fun _18_alt () FF0)
(declare-fun _10_alt () FF0)
(declare-fun _1_alt () FF0)
(declare-fun _0_alt () FF0)
(declare-fun _34 () FF0)
(declare-fun _33 () FF0)
(declare-fun _9 () FF0)
(declare-fun _32 () FF0)
(declare-fun _8 () FF0)
(declare-fun _31 () FF0)
(declare-fun _7 () FF0)
(declare-fun _30 () FF0)
(declare-fun _6 () FF0)
(declare-fun _29 () FF0)
(declare-fun _5 () FF0)
(declare-fun _28 () FF0)
(declare-fun _4 () FF0)
(declare-fun _27 () FF0)
(declare-fun _3 () FF0)
(declare-fun _26 () FF0)
(declare-fun _2 () FF0)
(declare-fun _25 () FF0)
(declare-fun _17 () FF0)
(declare-fun _24 () FF0)
(declare-fun _16 () FF0)
(declare-fun _23 () FF0)
(declare-fun _15 () FF0)
(declare-fun _22 () FF0)
(declare-fun _14 () FF0)
(declare-fun _21 () FF0)
(declare-fun _13 () FF0)
(declare-fun _20 () FF0)
(declare-fun _12 () FF0)
(declare-fun _19 () FF0)
(declare-fun _11 () FF0)
(declare-fun _18 () FF0)
(declare-fun _10 () FF0)
(declare-fun _1 () FF0)
(declare-fun _0 () FF0)
(declare-fun out_alt () FF0)
(declare-fun out () FF0)
(assert 
  (let ((let0 (as ff52435875175126190479447740508185965837690552500527637822603658699938581184512 FF0)))
  (let ((let1 _34_alt))
  (let ((let2 (ff.mul let1 let0)))
  (let ((let3 _33_alt))
  (let ((let4 _9_alt))
  (let ((let5 (ff.add let4 let3 let2)))
  (let ((let6 (ff.mul let3 let4)))
  (let ((let7 (= let6 let5)))
  (let ((let8 (ff.mul let3 let0)))
  (let ((let9 _32_alt))
  (let ((let10 _8_alt))
  (let ((let11 (ff.add let10 let9 let8)))
  (let ((let12 (ff.mul let9 let10)))
  (let ((let13 (= let12 let11)))
  (let ((let14 (ff.mul let9 let0)))
  (let ((let15 _31_alt))
  (let ((let16 _7_alt))
  (let ((let17 (ff.add let16 let15 let14)))
  (let ((let18 (ff.mul let15 let16)))
  (let ((let19 (= let18 let17)))
  (let ((let20 (ff.mul let15 let0)))
  (let ((let21 _30_alt))
  (let ((let22 _6_alt))
  (let ((let23 (ff.add let22 let21 let20)))
  (let ((let24 (ff.mul let21 let22)))
  (let ((let25 (= let24 let23)))
  (let ((let26 (ff.mul let21 let0)))
  (let ((let27 _29_alt))
  (let ((let28 _5_alt))
  (let ((let29 (ff.add let28 let27 let26)))
  (let ((let30 (ff.mul let27 let28)))
  (let ((let31 (= let30 let29)))
  (let ((let32 (ff.mul let27 let0)))
  (let ((let33 _28_alt))
  (let ((let34 _4_alt))
  (let ((let35 (ff.add let34 let33 let32)))
  (let ((let36 (ff.mul let33 let34)))
  (let ((let37 (= let36 let35)))
  (let ((let38 (ff.mul let33 let0)))
  (let ((let39 _27_alt))
  (let ((let40 _3_alt))
  (let ((let41 (ff.add let40 let39 let38)))
  (let ((let42 (ff.mul let39 let40)))
  (let ((let43 (= let42 let41)))
  (let ((let44 (ff.mul let39 let0)))
  (let ((let45 _26_alt))
  (let ((let46 _2_alt))
  (let ((let47 (ff.add let46 let45 let44)))
  (let ((let48 (ff.mul let45 let46)))
  (let ((let49 (= let48 let47)))
  (let ((let50 (ff.mul let45 let0)))
  (let ((let51 _25_alt))
  (let ((let52 _17_alt))
  (let ((let53 (ff.add let52 let51 let50)))
  (let ((let54 (ff.mul let51 let52)))
  (let ((let55 (= let54 let53)))
  (let ((let56 (ff.mul let51 let0)))
  (let ((let57 _24_alt))
  (let ((let58 _16_alt))
  (let ((let59 (ff.add let58 let57 let56)))
  (let ((let60 (ff.mul let57 let58)))
  (let ((let61 (= let60 let59)))
  (let ((let62 (ff.mul let57 let0)))
  (let ((let63 _23_alt))
  (let ((let64 _15_alt))
  (let ((let65 (ff.add let64 let63 let62)))
  (let ((let66 (ff.mul let63 let64)))
  (let ((let67 (= let66 let65)))
  (let ((let68 (ff.mul let63 let0)))
  (let ((let69 _22_alt))
  (let ((let70 _14_alt))
  (let ((let71 (ff.add let70 let69 let68)))
  (let ((let72 (ff.mul let69 let70)))
  (let ((let73 (= let72 let71)))
  (let ((let74 (ff.mul let69 let0)))
  (let ((let75 _21_alt))
  (let ((let76 _13_alt))
  (let ((let77 (ff.add let76 let75 let74)))
  (let ((let78 (ff.mul let75 let76)))
  (let ((let79 (= let78 let77)))
  (let ((let80 (ff.mul let75 let0)))
  (let ((let81 _20_alt))
  (let ((let82 _12_alt))
  (let ((let83 (ff.add let82 let81 let80)))
  (let ((let84 (ff.mul let81 let82)))
  (let ((let85 (= let84 let83)))
  (let ((let86 (ff.mul let81 let0)))
  (let ((let87 _19_alt))
  (let ((let88 _11_alt))
  (let ((let89 (ff.add let88 let87 let86)))
  (let ((let90 (ff.mul let87 let88)))
  (let ((let91 (= let90 let89)))
  (let ((let92 (ff.mul let87 let0)))
  (let ((let93 _18_alt))
  (let ((let94 _10_alt))
  (let ((let95 (ff.add let94 let93 let92)))
  (let ((let96 (ff.mul let93 let94)))
  (let ((let97 (= let96 let95)))
  (let ((let98 (ff.mul let93 let0)))
  (let ((let99 _1_alt))
  (let ((let100 _0_alt))
  (let ((let101 (ff.add let100 let99 let98)))
  (let ((let102 (ff.mul let100 let99)))
  (let ((let103 (= let102 let101)))
  (let ((let104 (ff.mul let52 let52)))
  (let ((let105 (= let104 let52)))
  (let ((let106 (ff.mul let58 let58)))
  (let ((let107 (= let106 let58)))
  (let ((let108 (ff.mul let64 let64)))
  (let ((let109 (= let108 let64)))
  (let ((let110 (ff.mul let70 let70)))
  (let ((let111 (= let110 let70)))
  (let ((let112 (ff.mul let76 let76)))
  (let ((let113 (= let112 let76)))
  (let ((let114 (ff.mul let82 let82)))
  (let ((let115 (= let114 let82)))
  (let ((let116 (ff.mul let88 let88)))
  (let ((let117 (= let116 let88)))
  (let ((let118 (ff.mul let94 let94)))
  (let ((let119 (= let118 let94)))
  (let ((let120 (ff.mul let4 let4)))
  (let ((let121 (= let120 let4)))
  (let ((let122 (ff.mul let10 let10)))
  (let ((let123 (= let122 let10)))
  (let ((let124 (ff.mul let16 let16)))
  (let ((let125 (= let124 let16)))
  (let ((let126 (ff.mul let22 let22)))
  (let ((let127 (= let126 let22)))
  (let ((let128 (ff.mul let28 let28)))
  (let ((let129 (= let128 let28)))
  (let ((let130 (ff.mul let34 let34)))
  (let ((let131 (= let130 let34)))
  (let ((let132 (ff.mul let40 let40)))
  (let ((let133 (= let132 let40)))
  (let ((let134 (ff.mul let46 let46)))
  (let ((let135 (= let134 let46)))
  (let ((let136 (ff.mul let99 let99)))
  (let ((let137 (= let136 let99)))
  (let ((let138 (ff.mul let100 let100)))
  (let ((let139 (= let138 let100)))
  (let ((let140 (and let139 let137 let135 let133 let131 let129 let127 let125 let123 let121 let119 let117 let115 let113 let111 let109 let107 let105 let103 let97 let91 let85 let79 let73 let67 let61 let55 let49 let43 let37 let31 let25 let19 let13 let7)))
  (let ((let141 _34))
  (let ((let142 (ff.mul let141 let0)))
  (let ((let143 _33))
  (let ((let144 _9))
  (let ((let145 (ff.add let144 let143 let142)))
  (let ((let146 (ff.mul let143 let144)))
  (let ((let147 (= let146 let145)))
  (let ((let148 (ff.mul let143 let0)))
  (let ((let149 _32))
  (let ((let150 _8))
  (let ((let151 (ff.add let150 let149 let148)))
  (let ((let152 (ff.mul let149 let150)))
  (let ((let153 (= let152 let151)))
  (let ((let154 (ff.mul let149 let0)))
  (let ((let155 _31))
  (let ((let156 _7))
  (let ((let157 (ff.add let156 let155 let154)))
  (let ((let158 (ff.mul let155 let156)))
  (let ((let159 (= let158 let157)))
  (let ((let160 (ff.mul let155 let0)))
  (let ((let161 _30))
  (let ((let162 _6))
  (let ((let163 (ff.add let162 let161 let160)))
  (let ((let164 (ff.mul let161 let162)))
  (let ((let165 (= let164 let163)))
  (let ((let166 (ff.mul let161 let0)))
  (let ((let167 _29))
  (let ((let168 _5))
  (let ((let169 (ff.add let168 let167 let166)))
  (let ((let170 (ff.mul let167 let168)))
  (let ((let171 (= let170 let169)))
  (let ((let172 (ff.mul let167 let0)))
  (let ((let173 _28))
  (let ((let174 _4))
  (let ((let175 (ff.add let174 let173 let172)))
  (let ((let176 (ff.mul let173 let174)))
  (let ((let177 (= let176 let175)))
  (let ((let178 (ff.mul let173 let0)))
  (let ((let179 _27))
  (let ((let180 _3))
  (let ((let181 (ff.add let180 let179 let178)))
  (let ((let182 (ff.mul let179 let180)))
  (let ((let183 (= let182 let181)))
  (let ((let184 (ff.mul let179 let0)))
  (let ((let185 _26))
  (let ((let186 _2))
  (let ((let187 (ff.add let186 let185 let184)))
  (let ((let188 (ff.mul let185 let186)))
  (let ((let189 (= let188 let187)))
  (let ((let190 (ff.mul let185 let0)))
  (let ((let191 _25))
  (let ((let192 _17))
  (let ((let193 (ff.add let192 let191 let190)))
  (let ((let194 (ff.mul let191 let192)))
  (let ((let195 (= let194 let193)))
  (let ((let196 (ff.mul let191 let0)))
  (let ((let197 _24))
  (let ((let198 _16))
  (let ((let199 (ff.add let198 let197 let196)))
  (let ((let200 (ff.mul let197 let198)))
  (let ((let201 (= let200 let199)))
  (let ((let202 (ff.mul let197 let0)))
  (let ((let203 _23))
  (let ((let204 _15))
  (let ((let205 (ff.add let204 let203 let202)))
  (let ((let206 (ff.mul let203 let204)))
  (let ((let207 (= let206 let205)))
  (let ((let208 (ff.mul let203 let0)))
  (let ((let209 _22))
  (let ((let210 _14))
  (let ((let211 (ff.add let210 let209 let208)))
  (let ((let212 (ff.mul let209 let210)))
  (let ((let213 (= let212 let211)))
  (let ((let214 (ff.mul let209 let0)))
  (let ((let215 _21))
  (let ((let216 _13))
  (let ((let217 (ff.add let216 let215 let214)))
  (let ((let218 (ff.mul let215 let216)))
  (let ((let219 (= let218 let217)))
  (let ((let220 (ff.mul let215 let0)))
  (let ((let221 _20))
  (let ((let222 _12))
  (let ((let223 (ff.add let222 let221 let220)))
  (let ((let224 (ff.mul let221 let222)))
  (let ((let225 (= let224 let223)))
  (let ((let226 (ff.mul let221 let0)))
  (let ((let227 _19))
  (let ((let228 _11))
  (let ((let229 (ff.add let228 let227 let226)))
  (let ((let230 (ff.mul let227 let228)))
  (let ((let231 (= let230 let229)))
  (let ((let232 (ff.mul let227 let0)))
  (let ((let233 _18))
  (let ((let234 _10))
  (let ((let235 (ff.add let234 let233 let232)))
  (let ((let236 (ff.mul let233 let234)))
  (let ((let237 (= let236 let235)))
  (let ((let238 (ff.mul let233 let0)))
  (let ((let239 _1))
  (let ((let240 _0))
  (let ((let241 (ff.add let240 let239 let238)))
  (let ((let242 (ff.mul let240 let239)))
  (let ((let243 (= let242 let241)))
  (let ((let244 (ff.mul let192 let192)))
  (let ((let245 (= let244 let192)))
  (let ((let246 (ff.mul let198 let198)))
  (let ((let247 (= let246 let198)))
  (let ((let248 (ff.mul let204 let204)))
  (let ((let249 (= let248 let204)))
  (let ((let250 (ff.mul let210 let210)))
  (let ((let251 (= let250 let210)))
  (let ((let252 (ff.mul let216 let216)))
  (let ((let253 (= let252 let216)))
  (let ((let254 (ff.mul let222 let222)))
  (let ((let255 (= let254 let222)))
  (let ((let256 (ff.mul let228 let228)))
  (let ((let257 (= let256 let228)))
  (let ((let258 (ff.mul let234 let234)))
  (let ((let259 (= let258 let234)))
  (let ((let260 (ff.mul let144 let144)))
  (let ((let261 (= let260 let144)))
  (let ((let262 (ff.mul let150 let150)))
  (let ((let263 (= let262 let150)))
  (let ((let264 (ff.mul let156 let156)))
  (let ((let265 (= let264 let156)))
  (let ((let266 (ff.mul let162 let162)))
  (let ((let267 (= let266 let162)))
  (let ((let268 (ff.mul let168 let168)))
  (let ((let269 (= let268 let168)))
  (let ((let270 (ff.mul let174 let174)))
  (let ((let271 (= let270 let174)))
  (let ((let272 (ff.mul let180 let180)))
  (let ((let273 (= let272 let180)))
  (let ((let274 (ff.mul let186 let186)))
  (let ((let275 (= let274 let186)))
  (let ((let276 (ff.mul let239 let239)))
  (let ((let277 (= let276 let239)))
  (let ((let278 (ff.mul let240 let240)))
  (let ((let279 (= let278 let240)))
  (let ((let280 (and let279 let277 let275 let273 let271 let269 let267 let265 let263 let261 let259 let257 let255 let253 let251 let249 let247 let245 let243 let237 let231 let225 let219 let213 let207 let201 let195 let189 let183 let177 let171 let165 let159 let153 let147)))
  (let ((let281 out_alt))
  (let ((let282 out))
  (let ((let283 (= let282 let281)))
  (let ((let284 (not let283)))
  (let ((let285 (= let210 let70)))
  (let ((let286 (= let192 let52)))
  (let ((let287 (= let186 let46)))
  (let ((let288 (= let222 let82)))
  (let ((let289 (= let180 let40)))
  (let ((let290 (= let234 let94)))
  (let ((let291 (= let168 let28)))
  (let ((let292 (= let174 let34)))
  (let ((let293 (= let239 let99)))
  (let ((let294 (= let204 let64)))
  (let ((let295 (= let150 let10)))
  (let ((let296 (= let198 let58)))
  (let ((let297 (= let144 let4)))
  (let ((let298 (= let240 let100)))
  (let ((let299 (= let228 let88)))
  (let ((let300 (= let156 let16)))
  (let ((let301 (= let216 let76)))
  (let ((let302 (= let162 let22)))
  (let ((let303 (and let302 let301 let300 let299 let298 let297 let296 let295 let294 let293 let292 let291 let290 let289 let288 let287 let286 let285)))
  (let ((let304 (and let303 let284 let280 let140)))
  let304
)))))))))))))))))))))))))))))))))))))))))))))))))))))))))))))))))))))))))))))))))))))))))))))))))))))))))))))))))))))))))))))))))))))))))))))))))))))))))))))))))))))))))))))))))))))))))))))))))))))))))))))))))))))))))))))))))))))))))))))))))))))))))))))))))))))))))))))))))))))))))))))))))))))))))))))))))
)
(check-sat)
